NAME: random_points
TYPE: TSP
DIMENSION: 14
EDGE_WEIGHT_TYPE: EUC_2D
NODE_COORD_SECTION
1 415 986
2 354 904
3 131 83
4 88 409
5 313 161
6 328 254
7 550 352
8 488 64
9 451 256
10 52 989
11 598 598
12 140 560
13 754 993
14 166 31
EOF
